435,67
892,115
874,140
994,305
1045,670
254,545
444,443
912,-48
885,6
760,909
681,766
795,369
891,406
947,364
1045,142
1069,124
850,237
644,643
782,719
744,469
653,397
531,406
620,791
552,805
450,-48
